Traveling Salesman Problem/TSP_generados/Aleatorio1621103493_15.tsp
NAME: Aleatorio1621103493_15.tsp
COMMENT: Randomly generated scenario
TYPE: TSP
DIMENSION: 15
EDGE_WEIGHT_TYPE: ATT
NODE_COORD_SECTION
1 25.56 27.88
2 10.87 10.45
3 48.44 29.79
4 37.76 43.68
5 32.06 24.48
6 29.7 43.1
7 47.7 15.17
8 44.42 34.97
9 17.97 26.87
10 9.36 27.66
11 38.02 19.29
12 39.65 0.53
13 19.08 47.87
14 0.26 30.19
15 17.04 36.46
