Traveling Salesman Problem/TSP_generados/Aleatorio1621103493_15.opt.tour
NAME: Aleatorio1621103493_15.opt.tour
COMMENT: Optimal solution for Aleatorio1621103493_15 (183.33242126191507)
TYPE: TOUR
DIMENSION: 15
TOUR_SECTION
1 9 2 14 10 15 13 6 4 8 3 7 12 11 5
-1
EOF
